JulietBench/Juliet_Based_Patch_Bench/linux/CWE-189-Numeric-Errors/CVE_2011_1476_b769f49463711205d57286e64cf535ed4daf59e9/solvermidi_synth_load_patch_Snippet.smt2
; benchmark generated from python API
(set-info :status unknown)
(declare-fun R () (_ BitVec 64))
(declare-fun rdx () (_ BitVec 64))
(declare-fun rdi () (_ BitVec 64))
(declare-fun rsi () (_ BitVec 64))
(assert
 (let (($x943 (= (_ bv18446744073709551594 64) R)))
 (let ((?x10 ((_ extract 31 0) rdx)))
 (let ((?x6 ((_ extract 31 0) rdi)))
 (let (($x16 (bvslt ?x6 ?x10)))
 (let (($x944 (and $x16 $x943)))
 (let ((?x8 ((_ extract 31 0) rsi)))
 (let ((?x63 ((_ extract 31 31) rsi)))
 (let ((?x912 (concat (concat (concat (concat (concat ?x63 ?x63) ?x63) ?x63) ?x63) ?x63)))
 (let ((?x917 (concat (concat (concat (concat (concat ?x912 ?x63) ?x63) ?x63) ?x63) ?x63)))
 (let ((?x922 (concat (concat (concat (concat (concat ?x917 ?x63) ?x63) ?x63) ?x63) ?x63)))
 (let ((?x927 (concat (concat (concat (concat (concat ?x922 ?x63) ?x63) ?x63) ?x63) ?x63)))
 (let ((?x932 (concat (concat (concat (concat (concat ?x927 ?x63) ?x63) ?x63) ?x63) ?x63)))
 (let ((?x937 (concat (concat (concat (concat (concat ?x932 ?x63) ?x63) ?x63) ?x63) ?x63)))
 (let ((?x939 (concat (concat ?x937 ?x63) ?x8)))
 (let (($x940 (= R ?x939)))
 (let (($x51 (bvsge ?x6 ?x10)))
 (let ((?x72 (bvmul (_ bv4294967295 32) ?x10)))
 (let ((?x73 (bvadd ?x6 ?x72)))
 (let (($x875 (bvuge ?x73 ?x8)))
 (let (($x947 (and $x875 $x51 $x940)))
 (let ((?x14 ((_ extract 31 31) ?x73)))
 (let ((?x861 (concat (concat (concat (concat (concat ?x14 ?x14) ?x14) ?x14) ?x14) ?x14)))
 (let ((?x851 (concat (concat (concat (concat (concat ?x861 ?x14) ?x14) ?x14) ?x14) ?x14)))
 (let ((?x888 (concat (concat (concat (concat (concat ?x851 ?x14) ?x14) ?x14) ?x14) ?x14)))
 (let ((?x893 (concat (concat (concat (concat (concat ?x888 ?x14) ?x14) ?x14) ?x14) ?x14)))
 (let ((?x898 (concat (concat (concat (concat (concat ?x893 ?x14) ?x14) ?x14) ?x14) ?x14)))
 (let ((?x903 (concat (concat (concat (concat (concat ?x898 ?x14) ?x14) ?x14) ?x14) ?x14)))
 (let ((?x905 (concat (concat ?x903 ?x14) ?x73)))
 (let (($x906 (= R ?x905)))
 (let (($x858 (bvult ?x73 ?x8)))
 (let (($x946 (and $x858 $x51 $x906)))
 (let (($x948 (or $x946 $x947 $x944)))
 (let (($x951 (not $x948)))
 (let (($x844 (bvsge ?x73 ?x8)))
 (let (($x941 (and $x844 $x51 $x940)))
 (let (($x78 (bvslt ?x73 ?x8)))
 (let (($x907 (and $x78 $x51 $x906)))
 (let (($x945 (or $x907 $x941 $x944)))
 (let (($x950 (not $x945)))
 (let (($x952 (and $x950 $x951)))
 (let (($x949 (and $x945 $x948)))
 (let (($x953 (or $x949 $x952)))
 (not $x953))))))))))))))))))))))))))))))))))))))))))))
(check-sat)
